c WARNING: for repeatability, setting FPU to use double precision
d VARIABLES            139150       
d CONSTRAINTS          583504       
c ============================[ Problem Statistics ]=============================
c |                                                                             |
c |  Number of variables:        139150                                         |
c |  Number of clauses:          583504                                         |
c |  Parse time:                   0.10 s                                       |
c |                                                                             |
c ============================[ Search Statistics ]==============================
c | Conflicts |          ORIGINAL         |          LEARNT          | Progress |
c |           |    Vars  Clauses Literals |    Limit  Clauses Lit/Cl |          |
c ===============================================================================
c |       100 |  108975   505282  1229645 |   185270      100     42 | 21.685 % |
c |       250 |  108975   505282  1229645 |   203797      250     48 | 21.685 % |
c |       475 |  108975   505282  1229645 |   224176      475     65 | 21.685 % |
c |       812 |  108975   505282  1229645 |   246594      812     79 | 21.685 % |
c |      1318 |  108975   505282  1229645 |   271253     1318     87 | 21.685 % |
c |      2077 |  108975   505282  1229645 |   298379     2077     91 | 21.685 % |
c |      3216 |  108975   505282  1229645 |   328217     3216    104 | 21.685 % |
c |      4924 |  108975   505282  1229645 |   361038     4924    109 | 21.685 % |
c |      7486 |  108975   505282  1229645 |   397142     7486    113 | 21.685 % |
c |     11330 |  108975   505282  1229645 |   436857    11330    117 | 21.685 % |
c |     17096 |  108975   505282  1229645 |   480542    17096    127 | 21.685 % |
c |     25745 |  108975   505282  1229645 |   528597    25745    142 | 21.685 % |
c |     38719 |  108975   505282  1229645 |   581456    38719    170 | 21.685 % |
c |     58180 |  108975   505282  1229645 |   639602    58180    167 | 21.685 % |
c |     87372 |  108975   505282  1229645 |   703562    87372    179 | 21.685 % |
c |    131161 |  108975   505282  1229645 |   773919   131161    187 | 21.685 % |
c |    196845 |  108975   505282  1229645 |   851310   196845    176 | 21.685 % |
c |    295371 |  108975   505282  1229645 |   936442   295371    176 | 21.685 % |
c |    443160 |  108975   505282  1229645 |  1030086   443160    175 | 21.685 % |
c |    664843 |  108975   505282  1229645 |  1133094   664843    170 | 21.685 % |
c |    997368 |  108975   505282  1229645 |  1246404   997368    174 | 21.685 % |
c |   1496156 |  108975   505282  1229645 |  1371044   244550    145 | 21.685 % |
c ===============================================================================
c restarts              : 3978
c conflicts             : 2022438        (1129 /sec)
c decisions             : 4664187        (0.00 % random) (2604 /sec)
c propagations          : 3524370591     (1967467 /sec)
c conflict literals     : 323560983      (40.42 % deleted)
d RESTARTS             3978
d FAILURES             2022438      
d NODES                4664187      
d BACKTRACKS           4664187      
d PROPAGATIONS         3524370591   
d NOGOODSIZE           159.99 
d MEMORY               1056.00 
d TIME                 1791.32 

s UNKNOWN
